# Solution for model hamming6-4
# Objective value = 12
x#1 0
x#2 0
x#3 0
x#4 0
x#5 0
x#6 1
x#7 0
x#8 1
x#9 0
x#10 0
x#11 0
x#12 0
x#13 0
x#14 0
x#15 0
x#16 0
x#17 0
x#18 0
x#19 0
x#20 0
x#21 0
x#22 0
x#23 0
x#24 0
x#25 0
x#26 0
x#27 0
x#28 0
x#29 0
x#30 0
x#31 0
x#32 0
x#33 0
x#34 1
x#35 0
x#36 1
x#37 1
x#38 1
x#39 1
x#40 1
x#41 0
x#42 0
x#43 0
x#44 0
x#45 0
x#46 1
x#47 0
x#48 1
x#49 0
x#50 0
x#51 0
x#52 0
x#53 0
x#54 1
x#55 0
x#56 1
x#57 0
x#58 0
x#59 0
x#60 0
x#61 0
x#62 0
x#63 0
x#64 0
